
Gurobi 12.0.2 (win64) logging started Tue Jun 10 18:59:34 2025

Set parameter LogFile to value "C:\Ioana\_uni\honours\slp\algorithm\Main_files\results\others\glucogenesis tasks\Task_001_Sample005_irr_gurobi.log"
Gurobi Optimizer version 12.0.2 build v12.0.2rc0 (win64 - Windows 11.0 (26100.2))

CPU model: Intel(R) Core(TM) Ultra 5 125H, instruction set [SSE2|AVX|AVX2]
Thread count: 14 physical cores, 18 logical processors, using up to 18 threads

Non-default parameters:
TimeLimit  2200

Optimize a model with 47226 rows, 34494 columns and 146681 nonzeros
Model fingerprint: 0xa4e0969d
Variable types: 17249 continuous, 17245 integer (17245 binary)
Coefficient statistics:
  Matrix range     [1e-04, 8e+04]
  Objective range  [5e-05, 3e+00]
  Bounds range     [1e+00, 1e+03]
  RHS range        [1e+00, 1e+00]
Found heuristic solution: objective 0.8771930
Presolve removed 47226 rows and 34494 columns
Presolve time: 0.28s
Presolve: All rows and columns removed

Explored 0 nodes (0 simplex iterations) in 0.32 seconds (0.35 work units)
Thread count was 1 (of 18 available processors)

Solution count 1: 0.877193 

Optimal solution found (tolerance 1.00e-04)
Best objective 8.771929824561e-01, best bound 8.771929824561e-01, gap 0.0000%

Gurobi 12.0.2 (win64) logging started Tue Jun 10 19:56:58 2025

Set parameter LogFile to value "C:\Ioana\_uni\honours\slp\algorithm\Main_files\results\others\glucogenesis tasks\Task_001_Sample005_irr_gurobi.log"
Gurobi Optimizer version 12.0.2 build v12.0.2rc0 (win64 - Windows 11.0 (26100.2))

CPU model: Intel(R) Core(TM) Ultra 5 125H, instruction set [SSE2|AVX|AVX2]
Thread count: 14 physical cores, 18 logical processors, using up to 18 threads

Non-default parameters:
TimeLimit  2200

Optimize a model with 47226 rows, 34511 columns and 146698 nonzeros
Model fingerprint: 0x5663f2ca
Variable types: 17266 continuous, 17245 integer (17245 binary)
Coefficient statistics:
  Matrix range     [1e-04, 8e+04]
  Objective range  [5e-05, 3e+00]
  Bounds range     [1e+00, 1e+03]
  RHS range        [1e+00, 1e+00]
Presolve removed 30822 rows and 21556 columns
Presolve time: 0.31s
Presolved: 16404 rows, 12955 columns, 54587 nonzeros
Variable types: 6409 continuous, 6546 integer (6546 binary)

Root relaxation: objective 5.353260e-03, 3048 iterations, 0.20 seconds (0.37 work units)

    Nodes    |    Current Node    |     Objective Bounds      |     Work
 Expl Unexpl |  Obj  Depth IntInf | Incumbent    BestBd   Gap | It/Node Time

     0     0    0.00535    0   20          -    0.00535      -     -    0s
H    0     0                       4.4424059    0.00535   100%     -    0s
     0     0    0.13640    0   50    4.44241    0.13640  96.9%     -    0s
     0     0    0.87719    0   51    4.44241    0.87719  80.3%     -    1s
     0     0    0.88239    0   48    4.44241    0.88239  80.1%     -    1s
H    0     0                       4.4424059    0.88239  80.1%     -    1s
     0     0    1.06210    0   63    4.44241    1.06210  76.1%     -    1s
     0     0    1.06210    0   60    4.44241    1.06210  76.1%     -    1s
     0     0    1.11231    0   61    4.44241    1.11231  75.0%     -    1s
     0     0    1.11231    0   62    4.44241    1.11231  75.0%     -    1s
     0     0    1.11482    0   80    4.44241    1.11482  74.9%     -    2s
     0     0    1.11482    0   78    4.44241    1.11482  74.9%     -    2s
     0     0    1.11482    0   78    4.44241    1.11482  74.9%     -    2s
     0     2    1.11482    0   78    4.44241    1.11482  74.9%     -    2s
H   36    15                       4.4424059    1.97596  55.5%   142    3s

Cutting planes:
  Learned: 1
  Cover: 13
  Implied bound: 13
  MIR: 28
  Flow cover: 88
  Flow path: 21
  Inf proof: 1
  Network: 31
  Relax-and-lift: 1

Explored 300 nodes (35041 simplex iterations) in 5.02 seconds (5.82 work units)
Thread count was 18 (of 18 available processors)

Solution count 1: 4.44241 

Optimal solution found (tolerance 1.00e-04)
Best objective 4.442405940431e+00, best bound 4.442405940431e+00, gap 0.0000%
